c K to QBF translator. (C)Rice University.
c From input file 14-4.lwb
p cnf 180 552
e 180 1 179 0
r 0.987 58 0
e 63 178 45 44 43 42 41 40 39 38 37 36 35 34 33 32 31 30 29 28 27 26 25 24 23 22 21 20 19 18 17 16 15 14 13 12 11 10 9 8 7 6 5 4 3 2 106 163 164 165 166 167 168 169 170 171 172 173 174 175 176 177 0
r 0.424 59 60 61 62 0
e 117 162 57 56 55 54 53 52 51 50 49 48 47 46 120 123 126 129 132 135 137 139 141 143 145 147 149 151 153 155 156 157 158 159 160 161 154 152 150 148 146 144 142 140 138 136 134 133 131 130 128 127 125 124 122 121 119 118 107 108 109 110 111 112 113 114 115 116 105 64 65 66 67 68 69 70 71 72 73 74 75 76 77 78 79 80 81 82 83 84 85 86 87 88 89 90 91 92 93 94 95 96 97 98 99 100 101 102 103 104 0
180 0
180 -179 -1 0
179 -180 0
1 -180 0
-179 63 178 0
-63 179 0
-178 179 0
-63 -58 -1 0
58 63 0
1 63 0
178 -106 -163 -164 -165 -166 -167 -168 -169 -170 -171 -172 -173 -174 -175 -176 -177 0
106 -178 0
163 -178 0
164 -178 0
165 -178 0
166 -178 0
167 -178 0
168 -178 0
169 -178 0
170 -178 0
171 -178 0
172 -178 0
173 -178 0
174 -178 0
175 -178 0
176 -178 0
177 -178 0
-106 -58 105 0
58 106 0
-105 106 0
105 -64 -65 -66 -67 -68 -8 -69 -70 -9 -10 -71 -72 -73 -74 -75 -76 -77 -78 -79 -11 -80 -81 -82 -83 -84 -85 -86 -87 -88 -89 -90 -91 -92 -93 -94 -95 -96 -97 -98 -99 -100 -101 -102 -103 -104 0
64 -105 0
65 -105 0
66 -105 0
67 -105 0
68 -105 0
8 -105 0
69 -105 0
70 -105 0
9 -105 0
10 -105 0
71 -105 0
72 -105 0
73 -105 0
74 -105 0
75 -105 0
76 -105 0
77 -105 0
78 -105 0
79 -105 0
11 -105 0
80 -105 0
81 -105 0
82 -105 0
83 -105 0
84 -105 0
85 -105 0
86 -105 0
87 -105 0
88 -105 0
89 -105 0
90 -105 0
91 -105 0
92 -105 0
93 -105 0
94 -105 0
95 -105 0
96 -105 0
97 -105 0
98 -105 0
99 -105 0
100 -105 0
101 -105 0
102 -105 0
103 -105 0
104 -105 0
-64 22 18 0
-22 64 0
-18 64 0
-65 2 18 0
-2 65 0
-18 65 0
-66 2 22 0
-2 66 0
-22 66 0
-67 3 18 0
-3 67 0
-18 67 0
-68 3 22 0
-3 68 0
-22 68 0
-69 5 18 0
-5 69 0
-18 69 0
-70 5 22 0
-5 70 0
-22 70 0
-71 23 19 0
-23 71 0
-19 71 0
-72 26 19 0
-26 72 0
-19 72 0
-73 26 23 0
-26 73 0
-23 73 0
-74 4 19 0
-4 74 0
-19 74 0
-75 4 23 0
-4 75 0
-23 75 0
-76 4 26 0
-4 76 0
-26 76 0
-77 6 19 0
-6 77 0
-19 77 0
-78 6 23 0
-6 78 0
-23 78 0
-79 6 26 0
-6 79 0
-26 79 0
-80 24 20 0
-24 80 0
-20 80 0
-81 27 20 0
-27 81 0
-20 81 0
-82 27 24 0
-27 82 0
-24 82 0
-83 29 20 0
-29 83 0
-20 83 0
-84 29 24 0
-29 84 0
-24 84 0
-85 29 27 0
-29 85 0
-27 85 0
-86 7 20 0
-7 86 0
-20 86 0
-87 7 24 0
-7 87 0
-24 87 0
-88 7 27 0
-7 88 0
-27 88 0
-89 7 29 0
-7 89 0
-29 89 0
-90 25 21 0
-25 90 0
-21 90 0
-91 28 21 0
-28 91 0
-21 91 0
-92 28 25 0
-28 92 0
-25 92 0
-93 30 21 0
-30 93 0
-21 93 0
-94 30 25 0
-30 94 0
-25 94 0
-95 30 28 0
-30 95 0
-28 95 0
-96 31 21 0
-31 96 0
-21 96 0
-97 31 25 0
-31 97 0
-25 97 0
-98 31 30 0
-31 98 0
-30 98 0
-99 31 28 0
-31 99 0
-28 99 0
-100 32 33 35 34 0
-32 100 0
-33 100 0
-35 100 0
-34 100 0
-101 36 37 39 38 0
-36 101 0
-37 101 0
-39 101 0
-38 101 0
-102 12 40 42 41 0
-12 102 0
-40 102 0
-42 102 0
-41 102 0
-103 15 16 45 17 0
-15 103 0
-16 103 0
-45 103 0
-17 103 0
-104 13 14 44 43 0
-13 104 0
-14 104 0
-44 104 0
-43 104 0
-163 117 162 0
-117 163 0
-162 163 0
117 -107 -108 -109 -110 -111 -112 -113 -114 -115 -116 0
107 -117 0
108 -117 0
109 -117 0
110 -117 0
111 -117 0
112 -117 0
113 -117 0
114 -117 0
115 -117 0
116 -117 0
-107 -11 59 -60 -61 62 0
11 107 0
-59 107 0
60 107 0
61 107 0
-62 107 0
-108 -10 -59 -60 -61 62 0
10 108 0
59 108 0
60 108 0
61 108 0
-62 108 0
-109 -9 59 60 61 -62 0
9 109 0
-59 109 0
-60 109 0
-61 109 0
62 109 0
-110 -8 -59 60 61 -62 0
8 110 0
59 110 0
-60 110 0
-61 110 0
62 110 0
-111 -7 59 -60 61 -62 0
7 111 0
-59 111 0
60 111 0
-61 111 0
62 111 0
-112 -6 -59 -60 61 -62 0
6 112 0
59 112 0
60 112 0
-61 112 0
62 112 0
-113 -5 59 60 -61 -62 0
5 113 0
-59 113 0
-60 113 0
61 113 0
62 113 0
-114 -4 -59 60 -61 -62 0
4 114 0
59 114 0
-60 114 0
61 114 0
62 114 0
-115 -3 59 -60 -61 -62 0
3 115 0
-59 115 0
60 115 0
61 115 0
62 115 0
-116 -2 -59 -60 -61 -62 0
2 116 0
59 116 0
60 116 0
61 116 0
62 116 0
162 -120 -123 -126 -129 -132 -135 -137 -139 -141 -143 -145 -147 -149 -151 -153 -155 -156 -157 -158 -159 -160 -161 0
120 -162 0
123 -162 0
126 -162 0
129 -162 0
132 -162 0
135 -162 0
137 -162 0
139 -162 0
141 -162 0
143 -162 0
145 -162 0
147 -162 0
149 -162 0
151 -162 0
153 -162 0
155 -162 0
156 -162 0
157 -162 0
158 -162 0
159 -162 0
160 -162 0
161 -162 0
-120 119 57 0
-119 120 0
-57 120 0
-119 -17 118 0
17 119 0
-118 119 0
118 11 10 9 8 7 6 5 4 3 2 0
-11 -118 0
-10 -118 0
-9 -118 0
-8 -118 0
-7 -118 0
-6 -118 0
-5 -118 0
-4 -118 0
-3 -118 0
-2 -118 0
-123 122 56 0
-122 123 0
-56 123 0
-122 -16 121 0
16 122 0
-121 122 0
121 11 10 9 8 7 6 5 4 3 2 0
-11 -121 0
-10 -121 0
-9 -121 0
-8 -121 0
-7 -121 0
-6 -121 0
-5 -121 0
-4 -121 0
-3 -121 0
-2 -121 0
-126 125 55 0
-125 126 0
-55 126 0
-125 -15 124 0
15 125 0
-124 125 0
124 11 10 9 8 7 6 5 4 3 2 0
-11 -124 0
-10 -124 0
-9 -124 0
-8 -124 0
-7 -124 0
-6 -124 0
-5 -124 0
-4 -124 0
-3 -124 0
-2 -124 0
-129 128 54 0
-128 129 0
-54 129 0
-128 -14 127 0
14 128 0
-127 128 0
127 11 10 9 8 7 6 5 4 3 2 0
-11 -127 0
-10 -127 0
-9 -127 0
-8 -127 0
-7 -127 0
-6 -127 0
-5 -127 0
-4 -127 0
-3 -127 0
-2 -127 0
-132 131 53 0
-131 132 0
-53 132 0
-131 -13 130 0
13 131 0
-130 131 0
130 11 10 9 8 7 6 5 4 3 2 0
-11 -130 0
-10 -130 0
-9 -130 0
-8 -130 0
-7 -130 0
-6 -130 0
-5 -130 0
-4 -130 0
-3 -130 0
-2 -130 0
-135 134 52 0
-134 135 0
-52 135 0
-134 -12 133 0
12 134 0
-133 134 0
133 11 10 9 8 7 6 5 4 3 2 0
-11 -133 0
-10 -133 0
-9 -133 0
-8 -133 0
-7 -133 0
-6 -133 0
-5 -133 0
-4 -133 0
-3 -133 0
-2 -133 0
-137 136 50 48 0
-136 137 0
-50 137 0
-48 137 0
-136 59 -60 -61 62 0
-59 136 0
60 136 0
61 136 0
-62 136 0
-139 138 49 47 0
-138 139 0
-49 139 0
-47 139 0
-138 -59 -60 -61 62 0
59 138 0
60 138 0
61 138 0
-62 138 0
-141 140 49 46 0
-140 141 0
-49 141 0
-46 141 0
-140 59 60 61 -62 0
-59 140 0
-60 140 0
-61 140 0
62 140 0
-143 142 47 46 0
-142 143 0
-47 143 0
-46 143 0
-142 -59 60 61 -62 0
59 142 0
-60 142 0
-61 142 0
62 142 0
-145 144 51 0
-144 145 0
-51 145 0
-144 59 -60 61 -62 0
-59 144 0
60 144 0
-61 144 0
62 144 0
-147 146 50 0
-146 147 0
-50 147 0
-146 -59 -60 61 -62 0
59 146 0
60 146 0
-61 146 0
62 146 0
-149 148 49 0
-148 149 0
-49 149 0
-148 59 60 -61 -62 0
-59 148 0
-60 148 0
61 148 0
62 148 0
-151 150 48 0
-150 151 0
-48 151 0
-150 -59 60 -61 -62 0
59 150 0
-60 150 0
61 150 0
62 150 0
-153 152 47 0
-152 153 0
-47 153 0
-152 59 -60 -61 -62 0
-59 152 0
60 152 0
61 152 0
62 152 0
-155 154 46 0
-154 155 0
-46 155 0
-154 -59 -60 -61 -62 0
59 154 0
60 154 0
61 154 0
62 154 0
-156 -51 -57 0
51 156 0
57 156 0
-157 -50 -56 0
50 157 0
56 157 0
-158 -49 -55 0
49 158 0
55 158 0
-159 -48 -54 0
48 159 0
54 159 0
-160 -47 -53 0
47 160 0
53 160 0
-161 -46 -52 0
46 161 0
52 161 0
-164 -31 -45 0
31 164 0
45 164 0
-165 -30 -44 0
30 165 0
44 165 0
-166 -29 -43 0
29 166 0
43 166 0
-167 -28 -42 0
28 167 0
42 167 0
-168 -27 -41 0
27 168 0
41 168 0
-169 -26 -40 0
26 169 0
40 169 0
-170 -25 -39 0
25 170 0
39 170 0
-171 -24 -38 0
24 171 0
38 171 0
-172 -23 -37 0
23 172 0
37 172 0
-173 -22 -36 0
22 173 0
36 173 0
-174 -21 -35 0
21 174 0
35 174 0
-175 -20 -34 0
20 175 0
34 175 0
-176 -19 -33 0
19 176 0
33 176 0
-177 -18 -32 0
18 177 0
32 177 0
